
Gurobi 11.0.1 (win64) logging started Thu Mar 14 08:01:53 2024

Set parameter LogFile to value "C:\Projetos\Job_Rotation_Algorithms\Outputs\GurobiLogs\gurobi_log-output-25_ros-c30-CostaMirallesModel-NoExtraConstraint-2.log"
Gurobi Optimizer version 11.0.1 build v11.0.1rc0 (win64 - Windows 10.0 (19045.2))

CPU model: 11th Gen Intel(R) Core(TM) i7-1165G7 @ 2.80GHz, instruction set [SSE2|AVX|AVX2|AVX512]
Thread count: 4 physical cores, 8 logical processors, using up to 1 threads


Gurobi 11.0.1 (win64) logging started Fri Mar 15 00:39:20 2024

Set parameter LogFile to value "C:\Projetos\Job_Rotation_Algorithms\Outputs\GurobiLogs\gurobi_log-output-25_ros-c30-CostaMirallesModel-NoExtraConstraint-2.log"
Gurobi Optimizer version 11.0.1 build v11.0.1rc0 (win64 - Windows 10.0 (19045.2))

CPU model: 11th Gen Intel(R) Core(TM) i7-1165G7 @ 2.80GHz, instruction set [SSE2|AVX|AVX2|AVX512]
Thread count: 4 physical cores, 8 logical processors, using up to 1 threads


Gurobi 11.0.1 (win64) logging started Sat Mar 16 12:25:48 2024

Set parameter LogFile to value "C:\Projetos\Job_Rotation_Algorithms\Outputs\GurobiLogs\gurobi_log-output-25_ros-c30-CostaMirallesModel-NoExtraConstraint-2.log"
Gurobi Optimizer version 11.0.1 build v11.0.1rc0 (win64 - Windows 10.0 (19045.2))

CPU model: 11th Gen Intel(R) Core(TM) i7-1165G7 @ 2.80GHz, instruction set [SSE2|AVX|AVX2|AVX512]
Thread count: 4 physical cores, 8 logical processors, using up to 1 threads


Gurobi 11.0.1 (win64) logging started Sat Mar 16 22:27:18 2024

Set parameter LogFile to value "C:\Projetos\Job_Rotation_Algorithms\Outputs\GurobiLogs\gurobi_log-output-25_ros-c30-CostaMirallesModel-NoExtraConstraint-2.log"
Gurobi Optimizer version 11.0.1 build v11.0.1rc0 (win64 - Windows 10.0 (19045.2))

CPU model: 11th Gen Intel(R) Core(TM) i7-1165G7 @ 2.80GHz, instruction set [SSE2|AVX|AVX2|AVX512]
Thread count: 4 physical cores, 8 logical processors, using up to 1 threads

WLS license 901039 - registered to Bitka Analytics
Optimize a model with 425 rows, 880 columns and 6864 nonzeros
Model fingerprint: 0x8e2bc2ab
Variable types: 2 continuous, 878 integer (878 binary)
Coefficient statistics:
  Matrix range     [1e+00, 3e+01]
  Objective range  [1e+00, 1e+00]
  Bounds range     [1e+00, 6e+01]
  RHS range        [1e+00, 6e+01]
Presolve removed 41 rows and 105 columns
Presolve time: 0.03s
Presolved: 384 rows, 775 columns, 5768 nonzeros
Variable types: 0 continuous, 775 integer (774 binary)

Root relaxation: objective 5.000000e+01, 451 iterations, 0.00 seconds (0.01 work units)

    Nodes    |    Current Node    |     Objective Bounds      |     Work
 Expl Unexpl |  Obj  Depth IntInf | Incumbent    BestBd   Gap | It/Node Time

     0     0   50.00000    0    9          -   50.00000      -     -    0s
     0     0   50.00000    0  130          -   50.00000      -     -    0s
     0     0   50.00000    0  128          -   50.00000      -     -    0s
     0     0   50.00000    0   29          -   50.00000      -     -    0s
     0     0   50.00000    0   77          -   50.00000      -     -    0s
     0     0   50.00000    0   15          -   50.00000      -     -    0s
     0     0   50.00000    0   15          -   50.00000      -     -    0s
     0     2   50.00000    0   15          -   50.00000      -     -    0s
*  267   108              49      48.0000000   50.00000  4.17%  39.2    0s
H  753   122                      49.0000000   50.00000  2.04%  52.1    1s
H  818   112                      50.0000000   50.00000  0.00%  18.3    2s

Cutting planes:
  Cover: 22
  Implied bound: 1
  Clique: 48
  MIR: 3
  Flow cover: 9
  GUB cover: 1
  Zero half: 1
  RLT: 5
  Relax-and-lift: 1
  BQP: 2

Explored 819 nodes (58363 simplex iterations) in 2.78 seconds (2.66 work units)
Thread count was 1 (of 8 available processors)

Solution count 3: 50 49 48 

Optimal solution found (tolerance 1.00e-03)
Best objective 5.000000000000e+01, best bound 5.000000000000e+01, gap 0.0000%
